NAME : rd100
TYPE : OP
DIMENSION : 100
COST_LIMIT : 3955
ROUTE_NODES : 54
ROUTE_SCORE : 2923
ROUTE_COST : 3947
NODE_SEQUENCE_SECTION
1
60
8
90
65
80
81
22
41
34
7
42
24
25
43
40
55
39
96
29
35
44
45
16
31
84
88
66
76
59
95
77
93
28
37
56
46
50
73
54
38
72
17
74
20
78
32
4
75
21
86
97
63
15
-1
DEPOT_SECTION
1
-1
EOF
